;symbolic execution tree
(push)
(assert (le x0 java.lang.Object))
(check-sat)
(push)
(assert (le x1 java.lang.Object))
(check-sat)
(push)
(assert (= x0 java.lang.StringBuilder))
(check-sat)
(push)
(assert (le x1 siena.AttributeValue))
(check-sat)
(pop)
(push)
(assert (not (le x1 siena.AttributeValue)))
(check-sat)
(push)
(assert (= x0 java.lang.StringBuilder))
(check-sat)
(pop)
(push)
(assert (not (= x0 java.lang.StringBuilder)))
(check-sat)
(pop)
(push)
(assert (= x0 java.lang.StringBuilder))
(check-sat)
(push)
(assert (le x1 siena.AttributeValue))
(check-sat)
(pop)
(push)
(assert (not (le x1 siena.AttributeValue)))
(check-sat)
(pop)
(pop)
(push)
(assert (not (= x0 java.lang.StringBuilder)))
(check-sat)
(pop)
(pop)
(pop)
(push)
(assert (not (= x0 java.lang.StringBuilder)))
(check-sat)
(push)
(assert (= x1 java.lang.String))
(check-sat)
(push)
(assert (= x1 java.lang.String))
(check-sat)
(pop)
(push)
(assert (not (= x1 java.lang.String)))
(check-sat)
(pop)
(pop)
(push)
(assert (not (= x1 java.lang.String)))
(check-sat)
(push)
(assert (= x0 java.lang.StringBuilder))
(check-sat)
(pop)
(push)
(assert (not (= x0 java.lang.StringBuilder)))
(check-sat)
(pop)
(push)
(assert (= x1 java.lang.String))
(check-sat)
(pop)
(push)
(assert (not (= x1 java.lang.String)))
(check-sat)
(pop)
(pop)
(push)
(assert (= x0 java.lang.StringBuilder))
(check-sat)
(pop)
(push)
(assert (not (= x0 java.lang.StringBuilder)))
(check-sat)
(push)
(assert (= x0 java.lang.StringBuilder))
(check-sat)
(pop)
(push)
(assert (not (= x0 java.lang.StringBuilder)))
(check-sat)
(push)
(assert (le x1 siena.Filter))
(check-sat)
(pop)
(push)
(assert (not (le x1 siena.Filter)))
(check-sat)
(pop)
(pop)
(push)
(assert (= x0 java.lang.StringBuilder))
(check-sat)
(pop)
(push)
(assert (not (= x0 java.lang.StringBuilder)))
(check-sat)
(push)
(assert (= x0 java.lang.StringBuilder))
(check-sat)
(pop)
(push)
(assert (not (= x0 java.lang.StringBuilder)))
(check-sat)
(pop)
(pop)
(push)
(assert (le x1 siena.Event))
(check-sat)
(pop)
(push)
(assert (not (le x1 siena.Event)))
(check-sat)
(pop)
(push)
(assert (= x0 java.lang.StringBuilder))
(check-sat)
(pop)
(push)
(assert (not (= x0 java.lang.StringBuilder)))
(check-sat)
(pop)
(pop)
(push)
(assert (le x1 siena.Filter))
(check-sat)
(push)
(assert (= x0 java.lang.StringBuilder))
(check-sat)
(pop)
(push)
(assert (not (= x0 java.lang.StringBuilder)))
(check-sat)
(pop)
(push)
(assert (le x1 siena.Filter))
(check-sat)
(pop)
(push)
(assert (not (le x1 siena.Filter)))
(check-sat)
(pop)
(pop)
(push)
(assert (not (le x1 siena.Filter)))
(check-sat)
(push)
(assert (le x1 siena.Filter))
(check-sat)
(pop)
(push)
(assert (not (le x1 siena.Filter)))
(check-sat)
(push)
(assert (le x1 siena.Filter))
(check-sat)
(pop)
(push)
(assert (not (le x1 siena.Filter)))
(check-sat)
(pop)
(push)
(assert (le x1 siena.Filter))
(check-sat)
(pop)
(push)
(assert (not (le x1 siena.Filter)))
(check-sat)
(pop)
(push)
(assert (le x1 siena.Filter))
(check-sat)
(pop)
(push)
(assert (not (le x1 siena.Filter)))
(check-sat)
(pop)
(push)
(assert (le x1 siena.Filter))
(check-sat)
(pop)
(push)
(assert (not (le x1 siena.Filter)))
(check-sat)
(pop)
(pop)
(push)
(assert (le x1 siena.Filter))
(check-sat)
(pop)
(push)
(assert (not (le x1 siena.Filter)))
(check-sat)
(push)
(assert (= x0 java.lang.StringBuilder))
(check-sat)
(pop)
(push)
(assert (not (= x0 java.lang.StringBuilder)))
(check-sat)
(pop)
(pop)
(push)
(assert (le x1 siena.Filter))
(check-sat)
(pop)
(push)
(assert (not (le x1 siena.Filter)))
(check-sat)
(push)
(assert (le x1 siena.Filter))
(check-sat)
(pop)
(push)
(assert (not (le x1 siena.Filter)))
(check-sat)
(pop)
(pop)
(push)
(assert (le x1 siena.Filter))
(check-sat)
(pop)
(push)
(assert (not (le x1 siena.Filter)))
(check-sat)
(pop)
(pop)
(push)
(assert (= x1 java.lang.String))
(check-sat)
(pop)
(push)
(assert (not (= x1 java.lang.String)))
(check-sat)
(push)
(assert (= x1 java.lang.String))
(check-sat)
(pop)
(push)
(assert (not (= x1 java.lang.String)))
(check-sat)
(push)
(assert (= x0 java.lang.StringBuilder))
(check-sat)
(pop)
(push)
(assert (not (= x0 java.lang.StringBuilder)))
(check-sat)
(pop)
(pop)
(push)
(assert (= x0 java.lang.StringBuilder))
(check-sat)
(pop)
(push)
(assert (not (= x0 java.lang.StringBuilder)))
(check-sat)
(push)
(assert (= x1 java.lang.String))
(check-sat)
(pop)
(push)
(assert (not (= x1 java.lang.String)))
(check-sat)
(pop)
(pop)
(push)
(assert (= x1 java.lang.String))
(check-sat)
(pop)
(push)
(assert (not (= x1 java.lang.String)))
(check-sat)
(push)
(assert (= x0 java.lang.StringBuilder))
(check-sat)
(pop)
(push)
(assert (not (= x0 java.lang.StringBuilder)))
(check-sat)
(push)
(assert (= x1 java.lang.String))
(check-sat)
(pop)
(push)
(assert (not (= x1 java.lang.String)))
(check-sat)
(pop)
(pop)
(pop)
(pop)
(push)
(assert (le x1 java.util.AbstractMap))
(check-sat)
(push)
(assert (le x1 java.lang.Object))
(check-sat)
(push)
(assert (le x1 java.lang.Object))
(check-sat)
(push)
(assert (le x1 java.lang.Object))
(check-sat)
(pop)
(push)
(assert (not (le x1 java.lang.Object)))
(check-sat)
(pop)
(pop)
(push)
(assert (not (le x1 java.lang.Object)))
(check-sat)
(pop)
(push)
(assert (= x0 java.lang.StringBuilder))
(check-sat)
(pop)
(push)
(assert (not (= x0 java.lang.StringBuilder)))
(check-sat)
(pop)
(pop)
(push)
(assert (not (le x1 java.lang.Object)))
(check-sat)
(pop)
(pop)
(push)
(assert (= x1 java.lang.Byte))
(check-sat)
(pop)
(push)
(assert (le x1 java.util.AbstractList))
(check-sat)
(pop)
(push)
(assert (le x1 java.net.InetAddress))
(check-sat)
(push)
(assert (= x0 java.lang.StringBuilder))
(check-sat)
(pop)
(push)
(assert (not (= x0 java.lang.StringBuilder)))
(check-sat)
(push)
(assert (le x1 java.lang.Object))
(check-sat)
(pop)
(push)
(assert (not (le x1 java.lang.Object)))
(check-sat)
(pop)
(pop)
(push)
(assert (= x0 java.lang.StringBuilder))
(check-sat)
(pop)
(push)
(assert (not (= x0 java.lang.StringBuilder)))
(check-sat)
(pop)
(push)
(assert (le x1 java.lang.Object))
(check-sat)
(push)
(assert (le x1 java.lang.Object))
(check-sat)
(pop)
(push)
(assert (not (le x1 java.lang.Object)))
(check-sat)
(pop)
(push)
(assert (= x0 java.lang.StringBuilder))
(check-sat)
(pop)
(push)
(assert (not (= x0 java.lang.StringBuilder)))
(check-sat)
(pop)
(push)
(assert (le x1 java.lang.Object))
(check-sat)
(pop)
(push)
(assert (not (le x1 java.lang.Object)))
(check-sat)
(pop)
(push)
(assert (= x0 java.lang.StringBuilder))
(check-sat)
(pop)
(push)
(assert (not (= x0 java.lang.StringBuilder)))
(check-sat)
(pop)
(pop)
(push)
(assert (not (le x1 java.lang.Object)))
(check-sat)
(pop)
(pop)
(push)
(assert (= x1 java.lang.Integer))
(check-sat)
(push)
(assert (= x0 java.lang.StringBuilder))
(check-sat)
(pop)
(push)
(assert (not (= x0 java.lang.StringBuilder)))
(check-sat)
(push)
(assert (= x0 java.lang.StringBuilder))
(check-sat)
(pop)
(push)
(assert (not (= x0 java.lang.StringBuilder)))
(check-sat)
(pop)
(pop)
(pop)
(push)
(assert (le x1 java.util.AbstractSet))
(check-sat)
(push)
(assert (le x1 java.lang.Object))
(check-sat)
(pop)
(push)
(assert (not (le x1 java.lang.Object)))
(check-sat)
(push)
(assert (le x1 java.lang.Object))
(check-sat)
(pop)
(push)
(assert (not (le x1 java.lang.Object)))
(check-sat)
(pop)
(pop)
(pop)
(push)
(assert (le x1 java.io.File))
(check-sat)
(push)
(assert (= x0 java.lang.StringBuilder))
(check-sat)
(pop)
(push)
(assert (not (= x0 java.lang.StringBuilder)))
(check-sat)
(pop)
(push)
(assert (le x1 java.lang.Object))
(check-sat)
(pop)
(push)
(assert (not (le x1 java.lang.Object)))
(check-sat)
(pop)
(pop)
(push)
(assert (= x1 java.lang.String))
(check-sat)
(pop)
(push)
(assert (le x1 siena.Subscriber))
(check-sat)
(push)
(assert (le x1 java.lang.Object))
(check-sat)
(pop)
(push)
(assert (not (le x1 java.lang.Object)))
(check-sat)
(pop)
(push)
(assert (= x0 java.lang.StringBuilder))
(check-sat)
(pop)
(push)
(assert (not (= x0 java.lang.StringBuilder)))
(check-sat)
(pop)
(push)
(assert (= x0 java.lang.StringBuilder))
(check-sat)
(pop)
(push)
(assert (not (= x0 java.lang.StringBuilder)))
(check-sat)
(push)
(assert (le x1 java.lang.Object))
(check-sat)
(pop)
(push)
(assert (not (le x1 java.lang.Object)))
(check-sat)
(pop)
(push)
(assert (= x0 java.lang.StringBuilder))
(check-sat)
(pop)
(push)
(assert (not (= x0 java.lang.StringBuilder)))
(check-sat)
(push)
(assert (le x1 java.lang.Object))
(check-sat)
(pop)
(push)
(assert (not (le x1 java.lang.Object)))
(check-sat)
(pop)
(pop)
(push)
(assert (le x1 java.lang.Object))
(check-sat)
(push)
(assert (= x0 java.lang.StringBuilder))
(check-sat)
(pop)
(push)
(assert (not (= x0 java.lang.StringBuilder)))
(check-sat)
(pop)
(push)
(assert (= x0 java.lang.StringBuilder))
(check-sat)
(pop)
(push)
(assert (not (= x0 java.lang.StringBuilder)))
(check-sat)
(pop)
(pop)
(push)
(assert (not (le x1 java.lang.Object)))
(check-sat)
(pop)
(pop)
(push)
(assert (le x1 java.lang.Object))
(check-sat)
(pop)
(push)
(assert (not (le x1 java.lang.Object)))
(check-sat)
(pop)
(push)
(assert (le x1 java.lang.Object))
(check-sat)
(pop)
(push)
(assert (not (le x1 java.lang.Object)))
(check-sat)
(pop)
(pop)
(push)
(assert (= x1 java.lang.Long))
(check-sat)
(push)
(assert (= x0 java.lang.StringBuilder))
(check-sat)
(pop)
(push)
(assert (not (= x0 java.lang.StringBuilder)))
(check-sat)
(pop)
(push)
(assert (le x1 java.lang.Object))
(check-sat)
(push)
(assert (= x0 java.lang.StringBuilder))
(check-sat)
(pop)
(push)
(assert (not (= x0 java.lang.StringBuilder)))
(check-sat)
(push)
(assert (= x0 java.lang.StringBuilder))
(check-sat)
(pop)
(push)
(assert (not (= x0 java.lang.StringBuilder)))
(check-sat)
(pop)
(pop)
(push)
(assert (= x0 java.lang.StringBuilder))
(check-sat)
(pop)
(push)
(assert (not (= x0 java.lang.StringBuilder)))
(check-sat)
(pop)
(pop)
(push)
(assert (not (le x1 java.lang.Object)))
(check-sat)
(pop)
(pop)
(push)
(assert (not (= x1 java.lang.String)))
(check-sat)
(push)
(assert (not (le x1 siena.Subscriber)))
(check-sat)
(push)
(assert (not (le x1 java.io.File)))
(check-sat)
(push)
(assert (not (le x1 siena.AttributeConstraint)))
(check-sat)
(push)
(assert (not (le x1 siena.AttributeValue)))
(check-sat)
(push)
(assert (not (le x1 java.net.InetAddress)))
(check-sat)
(push)
(assert (le x1 java.lang.Object))
(check-sat)
(push)
(assert (not (le x1 java.util.AbstractMap)))
(check-sat)
(push)
(assert (= x0 java.lang.StringBuilder))
(check-sat)
(pop)
(push)
(assert (not (= x0 java.lang.StringBuilder)))
(check-sat)
(push)
(assert (= x0 java.lang.StringBuilder))
(check-sat)
(pop)
(push)
(assert (not (= x0 java.lang.StringBuilder)))
(check-sat)
(pop)
(push)
(assert (le x1 java.lang.Object))
(check-sat)
(pop)
(push)
(assert (not (le x1 java.lang.Object)))
(check-sat)
(pop)
(push)
(assert (le x1 java.lang.Object))
(check-sat)
(pop)
(push)
(assert (not (le x1 java.lang.Object)))
(check-sat)
(pop)
(push)
(assert (le x1 java.lang.Object))
(check-sat)
(push)
(assert (le x1 java.lang.Object))
(check-sat)
(pop)
(push)
(assert (not (le x1 java.lang.Object)))
(check-sat)
(pop)
(pop)
(push)
(assert (not (le x1 java.lang.Object)))
(check-sat)
(pop)
(pop)
(pop)
(pop)
(pop)
(pop)
(pop)
(pop)
(pop)
(pop)
(push)
(assert (le x1 siena.AttributeValue))
(check-sat)
(pop)
(push)
(assert (= x1 java.lang.Double))
(check-sat)
(push)
(assert (= x0 java.lang.StringBuilder))
(check-sat)
(pop)
(push)
(assert (not (= x0 java.lang.StringBuilder)))
(check-sat)
(push)
(assert (le x1 java.lang.Object))
(check-sat)
(pop)
(push)
(assert (not (le x1 java.lang.Object)))
(check-sat)
(pop)
(pop)
(pop)
(push)
(assert (le x1 siena.AttributeConstraint))
(check-sat)
(pop)
(push)
(assert (le x1 siena.ByteBuf))
(check-sat)
(push)
(assert (le x1 siena.ByteBuf))
(check-sat)
(push)
(assert (= x0 java.lang.StringBuilder))
(check-sat)
(pop)
(push)
(assert (not (= x0 java.lang.StringBuilder)))
(check-sat)
(pop)
(push)
(assert (le x1 siena.ByteBuf))
(check-sat)
(pop)
(push)
(assert (not (le x1 siena.ByteBuf)))
(check-sat)
(pop)
(pop)
(push)
(assert (not (le x1 siena.ByteBuf)))
(check-sat)
(pop)
(pop)
(push)
(assert (not (le x1 siena.ByteBuf)))
(check-sat)
(push)
(assert (le x1 siena.ByteBuf))
(check-sat)
(pop)
(push)
(assert (not (le x1 siena.ByteBuf)))
(check-sat)
(push)
(assert (= x0 java.lang.StringBuilder))
(check-sat)
(pop)
(push)
(assert (not (= x0 java.lang.StringBuilder)))
(check-sat)
(push)
(assert (= x0 java.lang.StringBuilder))
(check-sat)
(pop)
(push)
(assert (not (= x0 java.lang.StringBuilder)))
(check-sat)
(pop)
(push)
(assert (= x0 java.lang.StringBuilder))
(check-sat)
(pop)
(push)
(assert (not (= x0 java.lang.StringBuilder)))
(check-sat)
(pop)
(push)
(assert (le x1 siena.ByteBuf))
(check-sat)
(pop)
(push)
(assert (not (le x1 siena.ByteBuf)))
(check-sat)
(pop)
(pop)
(pop)
(pop)
(push)
(assert (= x1 java.lang.String))
(check-sat)
(pop)
(push)
(assert (not (= x1 java.lang.String)))
(check-sat)
(push)
(assert (= x0 java.lang.StringBuilder))
(check-sat)
(pop)
(push)
(assert (not (= x0 java.lang.StringBuilder)))
(check-sat)
(push)
(assert (= x1 java.lang.String))
(check-sat)
(pop)
(push)
(assert (not (= x1 java.lang.String)))
(check-sat)
(pop)
(pop)
(push)
(assert (= x1 java.lang.String))
(check-sat)
(pop)
(push)
(assert (not (= x1 java.lang.String)))
(check-sat)
(pop)
(push)
(assert (= x1 java.lang.String))
(check-sat)
(pop)
(push)
(assert (not (= x1 java.lang.String)))
(check-sat)
(push)
(assert (= x0 java.lang.StringBuilder))
(check-sat)
(pop)
(push)
(assert (not (= x0 java.lang.StringBuilder)))
(check-sat)
(pop)
(pop)
(pop)
(push)
(assert (= x1 java.lang.String))
(check-sat)
(pop)
(push)
(assert (not (= x1 java.lang.String)))
(check-sat)
(pop)
(push)
(assert (= x0 java.lang.StringBuilder))
(check-sat)
(pop)
(push)
(assert (not (= x0 java.lang.StringBuilder)))
(check-sat)
(pop)
(push)
(assert (= x1 java.lang.String))
(check-sat)
(pop)
(push)
(assert (not (= x1 java.lang.String)))
(check-sat)
(pop)
(pop)
